SumColouring/JavaBacktracker/RandomInstances/40_0.15_2.col
c File: instances/40_0.15_2.col
c
c Description: Random graph of size 40 vertices and P(0.15000000000000002) of edges between any two vertices.
p col 40 780
e 1 3
e 1 7
e 1 10
e 1 11
e 1 13
e 1 19
e 1 25
e 1 26
e 1 30
e 2 4
e 2 10
e 2 16
e 2 20
e 2 21
e 2 30
e 2 31
e 2 40
e 3 11
e 3 13
e 3 14
e 3 26
e 3 28
e 3 30
e 3 36
e 4 5
e 4 17
e 4 23
e 4 35
e 4 37
e 5 11
e 5 15
e 5 20
e 5 33
e 5 34
e 5 40
e 6 21
e 6 24
e 6 32
e 6 36
e 7 10
e 7 30
e 7 31
e 7 38
e 8 11
e 8 17
e 8 24
e 8 26
e 8 27
e 8 28
e 8 29
e 8 33
e 8 36
e 8 38
e 9 21
e 9 25
e 9 29
e 9 30
e 9 38
e 10 17
e 10 22
e 10 34
e 11 12
e 11 16
e 11 24
e 11 29
e 12 19
e 12 20
e 12 27
e 12 40
e 13 16
e 13 18
e 13 20
e 13 28
e 13 36
e 13 37
e 13 39
e 13 40
e 14 16
e 14 17
e 14 22
e 14 35
e 15 25
e 15 31
e 16 37
e 17 19
e 17 22
e 17 27
e 17 30
e 17 32
e 17 40
e 18 20
e 18 24
e 18 25
e 18 34
e 19 31
e 19 33
e 19 36
e 20 23
e 21 31
e 21 32
e 21 34
e 21 36
e 21 38
e 22 23
e 22 28
e 22 33
e 22 38
e 23 27
e 23 32
e 23 35
e 23 36
e 23 37
e 23 39
e 24 33
e 24 34
e 24 40
e 25 32
e 25 39
e 26 27
e 26 40
e 27 33
e 27 34
e 28 29
e 28 38
e 29 31
e 29 35
e 29 40
e 30 36
e 30 37
e 30 40
e 31 32
e 32 35
e 34 39